nodes = 1115;
edges = 2574;
starts = [1, 1, 1, 2, 2, 3, 3, 3, 4, 4, 5, 5, 5, 6, 6, 6, 6, 7, 7, 7, 8, 8, 8, 9, 9, 10, 10, 11, 11, 12, 12, 12, 13, 13, 13, 14, 14, 14, 15, 15, 15, 16, 16, 16, 17, 17, 17, 18, 18, 18, 19, 19, 19, 20, 20, 21, 22, 23, 24, 24, 25, 25, 26, 26, 26, 27, 27, 28, 28, 28, 28, 29, 29, 29, 30, 30, 30, 31, 31, 31, 32, 32, 32, 33, 33, 34, 34, 34, 34, 35, 35, 36, 37, 37, 37, 38, 38, 38, 39, 39, 40, 41, 41, 42, 42, 43, 43, 44, 44, 44, 45, 45, 45, 46, 46, 46, 47, 47, 48, 48, 49, 49, 49, 50, 50, 50, 51, 51, 52, 52, 52, 53, 53, 53, 54, 55, 56, 56, 57, 57, 57, 58, 58, 59, 59, 59, 60, 60, 61, 61, 62, 62, 62, 63, 64, 64, 65, 65, 66, 66, 66, 67, 67, 68, 68, 68, 69, 70, 70, 71, 71, 72, 72, 72, 72, 73, 73, 73, 74, 74, 75, 76, 76, 77, 78, 78, 78, 79, 79, 80, 81, 81, 81, 82, 82, 83, 84, 84, 84, 85, 85, 86, 86, 87, 88, 88, 89, 89, 89, 90, 90, 90, 91, 91, 91, 92, 92, 92, 92, 93, 93, 93, 94, 94, 94, 95, 95, 95, 96, 96, 97, 97, 97, 98, 98, 99, 99, 100, 100, 101, 101, 102, 103, 103, 104, 104, 105, 106, 107, 107, 108, 108, 108, 109, 109, 110, 110, 111, 112, 112, 113, 113, 114, 115, 115, 116, 116, 117, 117, 117, 117, 118, 118, 118, 119, 120, 120, 120, 121, 121, 121, 122, 122, 123, 123, 124, 124, 124, 125, 125, 125, 125, 126, 126, 127, 127, 128, 128, 129, 129, 129, 130, 130, 130, 131, 131, 131, 132, 132, 132, 132, 133, 133, 134, 134, 135, 135, 136, 136, 136, 137, 138, 138, 139, 140, 140, 141, 141, 141, 142, 142, 143, 143, 144, 144, 144, 145, 145, 145, 146, 146, 146, 147, 147, 147, 148, 148, 149, 149, 150, 150, 151, 151, 151, 152, 152, 153, 154, 154, 155, 155, 155, 156, 156, 157, 157, 158, 159, 159, 159, 160, 160, 160, 161, 161, 162, 162, 163, 163, 164, 164, 165, 165, 166, 167, 168, 168, 169, 169, 169, 170, 170, 171, 171, 172, 173, 173, 173, 174, 174, 174, 175, 175, 175, 176, 176, 176, 177, 177, 177, 178, 178, 178, 179, 179, 179, 180, 180, 180, 181, 181, 181, 182, 182, 183, 183, 183, 184, 184, 184, 185, 185, 185, 186, 186, 186, 187, 187, 188, 189, 190, 190, 190, 191, 191, 192, 192, 192, 193, 193, 194, 195, 195, 195, 196, 196, 197, 197, 197, 198, 198, 198, 198, 199, 199, 199, 199, 200, 200, 201, 201, 201, 202, 202, 202, 203, 203, 203, 204, 204, 204, 205, 206, 207, 207, 207, 208, 208, 208, 209, 209, 209, 210, 210, 210, 211, 211, 211, 212, 212, 212, 213, 213, 214, 215, 215, 215, 216, 217, 218, 218, 218, 219, 219, 220, 220, 221, 221, 222, 223, 223, 223, 224, 224, 225, 226, 227, 227, 228, 229, 229, 229, 230, 231, 231, 232, 232, 232, 233, 233, 233, 234, 235, 235, 235, 236, 237, 237, 237, 238, 238, 238, 239, 239, 239, 240, 240, 241, 241, 242, 242, 242, 243, 243, 243, 244, 244, 244, 245, 245, 246, 246, 246, 247, 247, 247, 248, 248, 248, 248, 249, 249, 249, 250, 250, 250, 251, 251, 251, 252, 252, 252, 253, 253, 253, 254, 254, 255, 255, 255, 256, 256, 257, 257, 257, 258, 258, 259, 260, 260, 260, 261, 262, 262, 262, 263, 263, 264, 264, 264, 265, 265, 265, 266, 266, 266, 267, 267, 267, 267, 268, 268, 268, 269, 270, 270, 271, 271, 271, 272, 273, 274, 274, 275, 275, 276, 277, 278, 278, 278, 278, 279, 279, 279, 280, 280, 281, 281, 281, 282, 282, 282, 283, 283, 283, 284, 284, 284, 285, 285, 285, 286, 286, 287, 287, 287, 288, 288, 288, 289, 289, 290, 290, 290, 291, 291, 291, 292, 292, 292, 293, 293, 293, 293, 294, 295, 295, 295, 296, 296, 296, 297, 297, 297, 298, 298, 298, 299, 299, 300, 300, 300, 301, 301, 301, 302, 302, 302, 303, 303, 304, 305, 305, 305, 306, 306, 306, 307, 307, 308, 308, 308, 309, 309, 310, 310, 310, 311, 311, 311, 312, 312, 313, 313, 313, 314, 314, 315, 315, 315, 315, 316, 316, 316, 317, 318, 319, 319, 320, 320, 320, 321, 322, 323, 324, 324, 325, 325, 325, 326, 326, 326, 327, 328, 328, 328, 329, 330, 330, 330, 331, 332, 333, 333, 334, 334, 334, 335, 335, 336, 336, 337, 338, 338, 338, 339, 340, 340, 340, 341, 341, 341, 342, 342, 342, 343, 343, 343, 344, 345, 345, 345, 346, 346, 347, 347, 347, 348, 349, 349, 350, 351, 351, 352, 353, 353, 354, 355, 356, 356, 357, 357, 358, 358, 358, 359, 359, 359, 360, 361, 361, 361, 362, 362, 362, 363, 363, 364, 365, 366, 366, 366, 367, 367, 367, 368, 368, 368, 369, 369, 370, 370, 371, 371, 372, 372, 372, 373, 373, 374, 374, 375, 376, 376, 376, 377, 377, 377, 378, 379, 379, 379, 380, 381, 381, 382, 382, 382, 383, 384, 384, 384, 385, 386, 386, 386, 387, 387, 388, 388, 389, 389, 390, 390, 390, 391, 391, 392, 392, 393, 393, 393, 394, 394, 395, 395, 396, 396, 397, 397, 398, 398, 399, 399, 400, 400, 401, 401, 402, 402, 403, 403, 404, 404, 405, 405, 405, 406, 406, 407, 407, 408, 408, 408, 409, 409, 409, 410, 410, 411, 411, 411, 412, 412, 413, 414, 414, 415, 415, 416, 416, 417, 417, 418, 418, 418, 418, 419, 420, 420, 421, 421, 422, 422, 423, 423, 424, 424, 424, 425, 425, 425, 426, 426, 427, 427, 428, 428, 429, 429, 429, 429, 430, 430, 431, 432, 432, 432, 433, 433, 433, 434, 435, 435, 436, 436, 437, 438, 438, 438, 439, 440, 440, 441, 441, 442, 442, 443, 444, 444, 445, 446, 446, 446, 446, 447, 447, 448, 448, 448, 449, 449, 449, 450, 450, 451, 452, 452, 452, 453, 454, 455, 455, 456, 456, 456, 457, 457, 457, 458, 458, 458, 459, 459, 460, 460, 461, 461, 462, 462, 463, 463, 463, 464, 464, 464, 465, 465, 465, 466, 466, 466, 466, 467, 467, 467, 468, 468, 468, 468, 469, 470, 470, 471, 471, 471, 471, 472, 472, 473, 473, 474, 474, 475, 475, 476, 476, 476, 477, 477, 478, 478, 479, 479, 480, 480, 481, 481, 481, 482, 482, 483, 483, 484, 484, 484, 485, 485, 486, 486, 487, 487, 488, 488, 488, 489, 489, 490, 490, 491, 492, 492, 493, 493, 494, 494, 494, 495, 496, 496, 497, 497, 497, 498, 499, 499, 499, 500, 500, 500, 501, 502, 503, 503, 503, 504, 505, 505, 506, 506, 507, 507, 507, 508, 508, 509, 509, 510, 510, 510, 511, 511, 512, 512, 512, 513, 513, 514, 515, 515, 515, 516, 516, 517, 517, 518, 518, 519, 519, 519, 520, 520, 520, 520, 521, 521, 521, 521, 522, 522, 522, 523, 523, 523, 524, 524, 524, 525, 525, 525, 526, 526, 527, 527, 527, 528, 528, 528, 529, 529, 529, 529, 530, 530, 531, 532, 532, 533, 533, 534, 534, 534, 535, 535, 535, 536, 536, 536, 536, 537, 537, 537, 538, 539, 539, 540, 540, 541, 541, 542, 543, 543, 543, 544, 544, 544, 545, 545, 546, 546, 547, 547, 547, 548, 548, 549, 549, 550, 550, 551, 552, 552, 552, 553, 553, 553, 554, 554, 555, 555, 555, 556, 556, 557, 557, 557, 558, 558, 558, 559, 559, 559, 560, 560, 560, 561, 562, 563, 563, 564, 565, 565, 566, 566, 567, 567, 568, 568, 568, 569, 570, 571, 571, 571, 572, 572, 572, 573, 573, 573, 574, 574, 575, 576, 576, 576, 577, 577, 577, 577, 578, 578, 579, 579, 579, 580, 580, 580, 581, 581, 582, 582, 582, 583, 584, 585, 586, 587, 588, 588, 588, 589, 589, 590, 590, 590, 591, 592, 592, 593, 593, 593, 594, 594, 594, 595, 595, 595, 595, 596, 596, 596, 597, 597, 598, 599, 599, 600, 600, 601, 601, 602, 602, 602, 603, 603, 604, 604, 604, 605, 605, 606, 606, 607, 607, 608, 608, 609, 610, 610, 611, 611, 611, 612, 612, 612, 613, 613, 613, 614, 614, 614, 615, 616, 616, 616, 617, 617, 617, 618, 618, 619, 620, 620, 621, 621, 621, 622, 622, 622, 623, 623, 623, 624, 624, 625, 625, 626, 627, 627, 628, 628, 629, 629, 630, 630, 631, 631, 632, 632, 633, 633, 633, 634, 634, 634, 635, 635, 635, 636, 636, 636, 637, 637, 637, 638, 638, 638, 639, 639, 639, 640, 641, 641, 641, 642, 642, 642, 643, 644, 644, 645, 645, 645, 646, 646, 646, 647, 648, 648, 649, 649, 649, 649, 650, 650, 651, 652, 652, 652, 653, 653, 653, 654, 654, 655, 655, 655, 655, 656, 656, 657, 657, 657, 658, 658, 658, 658, 659, 659, 659, 660, 660, 660, 661, 661, 661, 661, 662, 662, 662, 663, 663, 664, 664, 664, 665, 665, 665, 665, 666, 666, 666, 667, 667, 668, 668, 668, 669, 669, 670, 670, 670, 671, 671, 672, 672, 673, 673, 674, 674, 675, 675, 675, 676, 676, 677, 677, 678, 678, 678, 679, 679, 679, 679, 680, 680, 680, 681, 681, 681, 682, 682, 682, 682, 683, 683, 684, 684, 685, 686, 686, 686, 687, 687, 688, 688, 688, 689, 689, 689, 690, 690, 690, 691, 692, 693, 693, 693, 694, 694, 694, 694, 695, 695, 696, 697, 697, 697, 698, 699, 699, 699, 700, 701, 701, 701, 702, 702, 703, 703, 704, 704, 705, 705, 705, 706, 707, 708, 709, 710, 711, 712, 712, 712, 713, 714, 714, 714, 714, 715, 716, 717, 717, 717, 718, 718, 718, 718, 719, 719, 719, 719, 720, 720, 720, 721, 721, 722, 722, 722, 723, 723, 723, 724, 724, 724, 725, 725, 725, 726, 726, 726, 727, 727, 727, 728, 728, 728, 729, 729, 729, 730, 731, 731, 732, 732, 732, 733, 733, 733, 734, 735, 735, 736, 736, 737, 737, 737, 738, 739, 740, 741, 741, 742, 742, 742, 743, 743, 744, 745, 745, 745, 745, 746, 746, 747, 747, 748, 748, 748, 749, 749, 749, 750, 751, 751, 751, 752, 752, 753, 753, 754, 755, 756, 756, 756, 757, 758, 758, 759, 760, 760, 761, 762, 762, 763, 764, 764, 765, 765, 765, 766, 766, 766, 767, 767, 767, 768, 768, 769, 769, 770, 770, 771, 771, 771, 772, 772, 772, 773, 773, 774, 775, 775, 775, 775, 776, 777, 777, 778, 778, 779, 780, 780, 780, 781, 781, 781, 782, 782, 782, 783, 783, 784, 785, 785, 786, 786, 786, 787, 787, 788, 788, 788, 789, 789, 790, 790, 790, 791, 791, 792, 793, 793, 793, 794, 794, 794, 795, 795, 796, 797, 798, 798, 798, 799, 800, 800, 801, 801, 802, 802, 802, 802, 803, 803, 803, 804, 805, 805, 806, 806, 807, 807, 807, 808, 809, 809, 809, 810, 810, 810, 810, 811, 811, 811, 812, 812, 812, 813, 814, 814, 814, 815, 815, 816, 816, 816, 817, 817, 818, 818, 818, 819, 820, 820, 820, 821, 821, 822, 822, 823, 823, 823, 824, 824, 825, 825, 826, 826, 827, 827, 827, 827, 828, 828, 828, 829, 829, 829, 830, 830, 831, 831, 831, 831, 832, 833, 834, 834, 834, 835, 836, 836, 836, 836, 837, 837, 837, 838, 838, 838, 839, 839, 839, 840, 840, 840, 841, 841, 841, 842, 842, 842, 843, 843, 844, 845, 845, 845, 846, 846, 847, 848, 848, 848, 849, 849, 849, 850, 850, 850, 850, 851, 851, 851, 852, 852, 853, 853, 854, 854, 855, 856, 856, 856, 857, 857, 857, 858, 858, 859, 860, 860, 861, 862, 862, 862, 863, 864, 864, 864, 865, 865, 866, 866, 866, 867, 867, 867, 868, 868, 868, 869, 869, 870, 870, 871, 871, 871, 872, 872, 872, 873, 874, 874, 875, 875, 876, 877, 877, 878, 878, 878, 879, 880, 880, 880, 881, 882, 882, 882, 882, 883, 883, 883, 884, 884, 885, 885, 886, 886, 886, 887, 887, 887, 888, 888, 889, 890, 890, 890, 891, 892, 892, 893, 893, 894, 894, 895, 895, 895, 896, 896, 897, 897, 897, 898, 898, 898, 899, 899, 900, 900, 901, 901, 902, 902, 902, 903, 903, 904, 904, 904, 905, 905, 905, 906, 906, 906, 907, 907, 908, 908, 908, 909, 910, 910, 911, 911, 912, 913, 914, 914, 914, 915, 915, 915, 916, 916, 916, 917, 918, 918, 918, 919, 919, 919, 920, 920, 920, 921, 921, 922, 923, 924, 925, 925, 926, 927, 928, 928, 928, 929, 929, 929, 930, 930, 930, 931, 931, 931, 932, 932, 933, 933, 933, 934, 934, 934, 935, 936, 936, 936, 937, 937, 938, 938, 939, 939, 939, 940, 940, 940, 941, 942, 942, 942, 943, 943, 944, 944, 945, 945, 945, 946, 946, 946, 947, 948, 948, 949, 949, 949, 950, 950, 951, 951, 951, 952, 952, 952, 953, 953, 953, 954, 954, 954, 955, 955, 955, 956, 956, 956, 957, 957, 958, 958, 959, 959, 959, 960, 961, 961, 962, 962, 962, 963, 963, 963, 964, 964, 964, 965, 965, 965, 966, 966, 967, 968, 968, 969, 969, 969, 970, 971, 972, 973, 973, 973, 974, 974, 975, 975, 976, 976, 976, 977, 977, 977, 978, 978, 978, 978, 979, 979, 979, 979, 980, 980, 980, 981, 982, 982, 982, 983, 983, 983, 984, 984, 984, 985, 985, 985, 986, 986, 987, 987, 987, 988, 989, 989, 990, 990, 990, 991, 991, 991, 992, 992, 992, 993, 993, 993, 994, 994, 994, 995, 995, 995, 996, 996, 997, 997, 998, 998, 999, 999, 999, 1000, 1000, 1001, 1001, 1001, 1002, 1002, 1002, 1003, 1003, 1003, 1004, 1004, 1004, 1005, 1005, 1005, 1006, 1006, 1006, 1007, 1007, 1008, 1008, 1009, 1010, 1010, 1010, 1011, 1011, 1011, 1012, 1012, 1013, 1013, 1014, 1014, 1015, 1015, 1016, 1016, 1016, 1017, 1017, 1017, 1018, 1018, 1019, 1019, 1020, 1021, 1021, 1022, 1022, 1022, 1023, 1023, 1024, 1024, 1025, 1025, 1025, 1026, 1026, 1026, 1027, 1027, 1028, 1028, 1028, 1028, 1029, 1029, 1030, 1031, 1031, 1032, 1032, 1032, 1033, 1033, 1033, 1034, 1034, 1034, 1035, 1035, 1035, 1036, 1036, 1037, 1038, 1039, 1039, 1040, 1040, 1040, 1040, 1041, 1041, 1042, 1043, 1043, 1043, 1044, 1044, 1045, 1046, 1046, 1047, 1047, 1047, 1048, 1048, 1048, 1049, 1049, 1049, 1050, 1050, 1050, 1051, 1051, 1051, 1052, 1052, 1053, 1053, 1053, 1054, 1054, 1055, 1056, 1056, 1057, 1057, 1058, 1058, 1059, 1060, 1061, 1061, 1062, 1062, 1063, 1063, 1063, 1064, 1064, 1065, 1065, 1066, 1066, 1066, 1067, 1067, 1067, 1068, 1068, 1069, 1069, 1070, 1070, 1070, 1071, 1071, 1071, 1072, 1072, 1073, 1073, 1073, 1074, 1074, 1075, 1076, 1076, 1077, 1077, 1078, 1079, 1079, 1080, 1080, 1081, 1081, 1082, 1082, 1083, 1083, 1084, 1084, 1084, 1085, 1085, 1086, 1086, 1086, 1087, 1087, 1088, 1088, 1088, 1089, 1089, 1089, 1089, 1090, 1091, 1091, 1092, 1092, 1092, 1093, 1094, 1094, 1094, 1095, 1095, 1096, 1096, 1096, 1097, 1098, 1098, 1098, 1099, 1100, 1101, 1101, 1101, 1102, 1102, 1102, 1102, 1103, 1103, 1103, 1104, 1104, 1105, 1105, 1105, 1106, 1106, 1107, 1107, 1108, 1108, 1108, 1109, 1109, 1110, 1111, 1111, 1112, 1112, 1113, 1113, 1113, 1114, 1115, 1115, 1115];
ends = [159, 407, 956, 238, 564, 26, 408, 522, 357, 1111, 772, 862, 863, 649, 652, 660, 661, 749, 909, 1101, 199, 632, 966, 529, 1074, 359, 642, 111, 335, 204, 414, 588, 22, 74, 851, 672, 783, 820, 16, 256, 440, 15, 1096, 1113, 198, 512, 764, 237, 248, 392, 240, 659, 1062, 391, 399, 1025, 13, 568, 407, 986, 260, 1018, 3, 525, 718, 49, 555, 117, 177, 555, 587, 32, 230, 818, 524, 572, 846, 280, 872, 898, 29, 283, 1103, 282, 622, 366, 719, 829, 849, 437, 484, 642, 301, 697, 818, 235, 472, 845, 735, 964, 136, 899, 1069, 787, 810, 136, 703, 593, 640, 955, 46, 298, 901, 45, 702, 978, 412, 535, 112, 116, 27, 528, 831, 857, 864, 887, 299, 856, 534, 645, 775, 97, 297, 553, 803, 803, 741, 1040, 313, 594, 748, 180, 1075, 87, 206, 883, 162, 748, 908, 1088, 163, 691, 1099, 66, 223, 473, 79, 356, 63, 68, 699, 173, 1076, 66, 235, 424, 802, 773, 1051, 324, 937, 124, 125, 144, 1001, 246, 248, 1005, 13, 1105, 77, 78, 582, 80, 85, 279, 284, 65, 216, 357, 83, 253, 977, 322, 737, 81, 85, 279, 877, 84, 88, 122, 817, 59, 84, 237, 295, 402, 1034, 35, 612, 882, 204, 713, 952, 160, 490, 904, 918, 506, 613, 954, 363, 616, 711, 108, 811, 813, 827, 911, 53, 545, 983, 259, 904, 786, 924, 470, 684, 550, 602, 675, 109, 504, 107, 827, 86, 307, 104, 664, 95, 646, 914, 320, 504, 105, 903, 11, 320, 907, 48, 112, 802, 655, 661, 117, 907, 28, 116, 281, 944, 520, 945, 949, 969, 457, 543, 580, 217, 614, 954, 325, 1030, 821, 1040, 72, 246, 1003, 72, 144, 446, 1000, 127, 1015, 1015, 1050, 285, 403, 130, 190, 361, 129, 131, 190, 130, 241, 1028, 278, 427, 471, 594, 286, 303, 976, 1087, 143, 501, 40, 43, 393, 784, 448, 723, 656, 140, 218, 215, 890, 1035, 135, 143, 142, 621, 72, 125, 446, 178, 316, 347, 287, 422, 793, 248, 387, 394, 163, 691, 405, 411, 151, 153, 193, 244, 332, 193, 592, 154, 110, 157, 667, 680, 681, 153, 191, 45, 156, 841, 1, 624, 990, 92, 345, 379, 590, 877, 251, 438, 1032, 1099, 166, 592, 597, 1079, 447, 488, 466, 685, 581, 1002, 1085, 388, 1089, 338, 354, 1098, 67, 556, 798, 522, 718, 742, 280, 287, 842, 776, 816, 1074, 28, 181, 991, 145, 912, 962, 183, 725, 991, 58, 896, 897, 177, 725, 991, 58, 1075, 179, 184, 555, 183, 531, 725, 208, 954, 999, 209, 643, 839, 187, 842, 285, 714, 129, 130, 523, 151, 332, 731, 943, 986, 244, 669, 524, 537, 775, 834, 629, 737, 452, 464, 737, 17, 315, 507, 995, 8, 409, 678, 722, 596, 1033, 343, 402, 1082, 877, 1031, 1086, 582, 923, 1086, 12, 91, 521, 751, 59, 515, 864, 887, 185, 613, 1034, 186, 837, 999, 678, 722, 724, 294, 969, 1057, 378, 926, 979, 265, 1019, 599, 141, 301, 780, 79, 121, 140, 219, 461, 218, 762, 214, 866, 278, 1024, 511, 64, 526, 1026, 139, 669, 573, 920, 56, 226, 1025, 377, 919, 1088, 29, 957, 958, 417, 631, 1067, 232, 260, 398, 1105, 38, 68, 477, 540, 18, 88, 927, 2, 316, 347, 379, 812, 841, 417, 1067, 856, 857, 249, 250, 973, 436, 530, 778, 150, 245, 621, 760, 1010, 73, 124, 446, 755, 756, 1009, 18, 73, 147, 590, 242, 442, 751, 242, 282, 751, 438, 892, 961, 253, 746, 977, 81, 252, 254, 253, 256, 463, 672, 820, 15, 254, 638, 953, 984, 96, 911, 258, 25, 233, 741, 1098, 547, 772, 955, 263, 868, 733, 847, 1089, 213, 766, 836, 400, 570, 733, 455, 569, 854, 1068, 610, 922, 1114, 449, 650, 910, 317, 605, 626, 612, 682, 516, 821, 821, 1007, 628, 368, 132, 221, 523, 843, 76, 78, 1086, 31, 175, 117, 742, 1042, 33, 250, 973, 32, 270, 500, 78, 728, 895, 128, 188, 286, 133, 285, 146, 175, 872, 367, 517, 773, 752, 975, 367, 721, 752, 547, 772, 835, 381, 568, 870, 341, 536, 537, 978, 211, 89, 343, 745, 544, 745, 983, 53, 814, 837, 45, 788, 812, 51, 721, 418, 696, 1052, 37, 215, 883, 133, 303, 675, 623, 683, 617, 302, 309, 674, 387, 401, 678, 106, 1041, 603, 607, 939, 305, 653, 488, 562, 603, 314, 648, 965, 438, 451, 57, 435, 566, 311, 468, 198, 595, 836, 880, 145, 238, 894, 271, 513, 729, 1038, 113, 934, 936, 955, 82, 458, 71, 270, 126, 326, 906, 86, 325, 936, 182, 383, 533, 754, 327, 331, 905, 1020, 330, 152, 333, 747, 353, 800, 810, 11, 1008, 11, 111, 345, 171, 371, 663, 340, 339, 342, 841, 293, 794, 978, 340, 344, 345, 201, 295, 459, 342, 160, 337, 342, 391, 964, 145, 238, 348, 347, 705, 808, 771, 476, 514, 890, 334, 1022, 171, 899, 65, 749, 4, 648, 360, 424, 981, 10, 873, 1112, 358, 129, 633, 850, 370, 415, 529, 94, 639, 614, 366, 34, 365, 671, 288, 290, 848, 277, 384, 1016, 791, 998, 362, 1103, 338, 374, 716, 759, 1051, 445, 731, 371, 871, 1038, 413, 868, 980, 229, 780, 818, 212, 160, 239, 993, 1004, 381, 292, 520, 1061, 1108, 328, 368, 783, 867, 895, 369, 380, 781, 147, 306, 820, 867, 395, 1061, 148, 949, 1032, 20, 346, 18, 448, 99, 136, 412, 147, 397, 41, 556, 508, 988, 392, 448, 227, 233, 266, 400, 404, 406, 306, 409, 201, 613, 20, 399, 128, 403, 401, 409, 446, 404, 869, 1, 24, 3, 525, 719, 149, 199, 405, 959, 960, 149, 168, 685, 924, 979, 376, 12, 720, 362, 565, 420, 861, 233, 260, 300, 481, 666, 951, 816, 416, 1113, 33, 982, 146, 609, 482, 513, 68, 358, 634, 670, 671, 980, 219, 461, 132, 1044, 425, 1017, 649, 660, 834, 1049, 637, 871, 712, 788, 812, 838, 481, 666, 838, 631, 313, 427, 243, 816, 35, 162, 312, 430, 742, 15, 686, 164, 573, 249, 1096, 1073, 686, 952, 441, 125, 144, 246, 405, 373, 990, 138, 394, 397, 269, 798, 828, 942, 972, 312, 197, 453, 724, 452, 464, 496, 806, 457, 542, 837, 120, 456, 839, 323, 817, 1057, 343, 462, 226, 1084, 480, 483, 479, 552, 255, 739, 932, 197, 454, 723, 466, 765, 921, 231, 465, 958, 959, 410, 958, 998, 214, 220, 314, 1108, 1062, 667, 827, 132, 523, 594, 850, 38, 478, 64, 843, 459, 1053, 469, 1063, 351, 509, 766, 235, 472, 475, 1064, 474, 1074, 1033, 1039, 418, 433, 788, 1065, 1112, 222, 480, 35, 612, 740, 705, 753, 489, 491, 892, 932, 167, 276, 310, 486, 1047, 92, 1088, 1070, 578, 1070, 492, 655, 657, 661, 679, 496, 129, 495, 890, 931, 1035, 499, 498, 502, 1014, 283, 618, 697, 135, 499, 567, 589, 674, 423, 521, 1081, 510, 1017, 198, 836, 1083, 819, 996, 200, 694, 506, 688, 690, 222, 875, 17, 994, 995, 318, 946, 351, 207, 519, 1028, 274, 443, 288, 732, 709, 809, 515, 976, 1029, 118, 382, 668, 882, 204, 505, 584, 1063, 3, 174, 718, 190, 278, 471, 30, 194, 547, 26, 408, 829, 223, 757, 699, 845, 973, 49, 555, 577, 9, 362, 815, 1115, 243, 776, 184, 639, 1076, 486, 1047, 52, 571, 636, 47, 380, 386, 293, 571, 775, 794, 195, 293, 658, 969, 736, 888, 236, 541, 540, 1071, 456, 120, 553, 828, 296, 552, 727, 97, 795, 487, 892, 262, 291, 524, 460, 1109, 603, 879, 604, 1060, 831, 462, 544, 745, 543, 545, 985, 414, 720, 28, 183, 528, 173, 801, 558, 862, 1091, 557, 559, 1091, 558, 563, 620, 19, 659, 1018, 1041, 310, 559, 606, 2, 61, 908, 313, 896, 503, 675, 23, 292, 1046, 267, 847, 534, 536, 617, 30, 859, 860, 225, 441, 647, 575, 885, 586, 849, 994, 1092, 528, 595, 596, 831, 489, 492, 814, 999, 1034, 120, 803, 1036, 951, 1052, 76, 203, 653, 688, 521, 574, 881, 28, 12, 782, 1064, 286, 503, 161, 248, 1005, 1048, 152, 166, 44, 620, 862, 57, 132, 471, 315, 577, 694, 1092, 200, 577, 694, 633, 852, 623, 382, 715, 976, 1102, 708, 826, 101, 604, 939, 308, 310, 550, 602, 607, 271, 1022, 563, 611, 604, 1060, 270, 324, 830, 268, 921, 606, 790, 826, 90, 272, 484, 93, 208, 402, 121, 364, 763, 628, 94, 711, 940, 304, 571, 790, 71, 500, 766, 559, 593, 244, 625, 644, 33, 699, 717, 598, 683, 823, 159, 630, 142, 621, 271, 231, 957, 549, 615, 196, 963, 624, 956, 434, 714, 792, 922, 361, 495, 1027, 421, 424, 984, 636, 677, 1070, 534, 635, 641, 60, 430, 1048, 257, 717, 982, 363, 436, 532, 44, 636, 645, 652, 10, 36, 842, 186, 139, 224, 52, 641, 649, 4, 108, 648, 573, 311, 646, 6, 429, 645, 1049, 910, 1115, 1022, 6, 641, 655, 309, 582, 1031, 728, 895, 115, 493, 652, 657, 625, 644, 494, 655, 992, 537, 662, 665, 834, 560, 701, 825, 6, 429, 665, 6, 115, 494, 664, 658, 665, 978, 338, 701, 107, 661, 667, 658, 660, 662, 827, 418, 433, 840, 155, 664, 520, 785, 940, 224, 244, 425, 428, 764, 366, 670, 14, 255, 679, 992, 305, 503, 102, 302, 567, 957, 1078, 491, 635, 199, 210, 306, 494, 673, 680, 687, 155, 679, 689, 155, 682, 693, 273, 681, 684, 695, 302, 305, 100, 682, 792, 440, 444, 1051, 679, 689, 510, 583, 878, 680, 687, 693, 510, 738, 878, 137, 994, 681, 689, 695, 509, 595, 596, 836, 682, 693, 300, 37, 500, 883, 964, 66, 527, 622, 980, 469, 659, 1063, 156, 846, 43, 704, 703, 893, 349, 485, 832, 962, 839, 601, 1054, 530, 710, 431, 1007, 1084, 91, 189, 631, 1067, 1090, 599, 372, 622, 638, 953, 26, 174, 522, 829, 27, 34, 408, 944, 442, 554, 782, 299, 975, 199, 210, 963, 138, 464, 724, 210, 452, 723, 179, 181, 184, 915, 928, 929, 544, 816, 983, 284, 654, 823, 734, 809, 900, 823, 192, 445, 267, 854, 856, 264, 266, 570, 518, 39, 736, 539, 735, 82, 196, 197, 690, 463, 484, 56, 233, 174, 281, 439, 914, 1109, 765, 295, 296, 552, 814, 252, 768, 333, 990, 57, 60, 850, 7, 356, 888, 977, 205, 249, 250, 289, 290, 485, 769, 328, 396, 247, 755, 974, 526, 247, 1009, 372, 247, 756, 762, 761, 874, 614, 17, 1083, 465, 627, 744, 265, 476, 619, 770, 799, 853, 746, 1071, 349, 808, 767, 884, 350, 809, 917, 5, 262, 291, 288, 952, 753, 52, 195, 536, 1049, 1006, 797, 985, 363, 710, 898, 215, 377, 1011, 386, 789, 810, 588, 720, 845, 14, 384, 786, 945, 950, 40, 99, 784, 781, 1032, 298, 432, 481, 386, 791, 611, 617, 794, 369, 807, 921, 146, 872, 898, 341, 536, 790, 419, 545, 985, 67, 173, 449, 1055, 767, 390, 950, 355, 1036, 69, 114, 804, 1071, 54, 55, 580, 802, 1077, 1079, 455, 1079, 789, 791, 810, 865, 709, 729, 771, 42, 334, 781, 807, 95, 813, 933, 239, 298, 432, 511, 297, 579, 745, 529, 1085, 176, 436, 727, 122, 458, 29, 37, 377, 770, 14, 255, 388, 275, 1040, 774, 1087, 623, 728, 730, 608, 1006, 560, 942, 601, 611, 96, 104, 470, 665, 449, 543, 833, 34, 525, 718, 232, 398, 49, 551, 577, 849, 705, 828, 195, 429, 658, 291, 265, 315, 507, 694, 209, 297, 456, 432, 433, 840, 186, 457, 707, 666, 838, 993, 158, 239, 340, 175, 187, 642, 278, 473, 860, 38, 527, 782, 30, 878, 170, 367, 885, 1014, 34, 576, 831, 361, 471, 748, 1021, 13, 1012, 1106, 871, 913, 891, 996, 517, 732, 822, 51, 241, 732, 50, 241, 1102, 51, 1102, 572, 572, 844, 416, 5, 557, 593, 5, 50, 207, 1028, 855, 889, 220, 314, 965, 384, 388, 1016, 263, 376, 1098, 406, 870, 292, 869, 165, 374, 597, 31, 287, 793, 359, 113, 934, 218, 874, 585, 161, 202, 688, 690, 846, 549, 315, 995, 1092, 876, 90, 520, 948, 967, 59, 301, 697, 335, 1008, 575, 848, 1010, 1105, 1106, 50, 207, 1102, 539, 749, 855, 141, 352, 497, 758, 251, 487, 216, 704, 316, 1013, 284, 385, 654, 180, 566, 180, 896, 961, 31, 779, 793, 1019, 1093, 375, 902, 98, 259, 734, 900, 905, 105, 936, 92, 98, 928, 330, 902, 906, 325, 905, 1030, 157, 903, 415, 565, 1085, 7, 608, 824, 46, 901, 178, 637, 95, 108, 920, 726, 918, 930, 918, 919, 931, 771, 92, 915, 916, 229, 916, 1011, 609, 811, 914, 465, 610, 268, 203, 62, 925, 956, 212, 237, 726, 904, 929, 726, 928, 930, 915, 929, 931, 497, 916, 930, 463, 487, 811, 875, 934, 320, 482, 933, 940, 109, 320, 326, 935, 938, 785, 935, 308, 602, 942, 616, 668, 1059, 943, 450, 825, 939, 192, 941, 117, 719, 118, 949, 950, 513, 962, 1050, 1095, 882, 947, 118, 390, 947, 618, 938, 418, 581, 1002, 91, 444, 773, 257, 717, 1025, 93, 121, 185, 44, 262, 321, 1, 630, 925, 676, 958, 467, 959, 168, 466, 960, 411, 546, 897, 178, 706, 946, 629, 722, 966, 39, 346, 698, 866, 1056, 1109, 8, 963, 882, 351, 1033, 119, 211, 538, 1093, 974, 450, 242, 282, 527, 756, 971, 289, 721, 134, 519, 600, 81, 252, 750, 46, 293, 341, 662, 212, 412, 1037, 1043, 376, 425, 700, 358, 421, 638, 984, 97, 296, 727, 257, 634, 982, 553, 777, 796, 24, 192, 334, 353, 807, 989, 988, 1058, 159, 447, 747, 177, 179, 181, 657, 673, 1045, 379, 840, 1002, 512, 576, 692, 198, 512, 880, 396, 891, 330, 336, 467, 987, 185, 209, 579, 125, 1001, 72, 1000, 1003, 169, 951, 993, 124, 1001, 1005, 47, 386, 1043, 73, 590, 1003, 9, 776, 824, 516, 712, 335, 1020, 1010, 245, 886, 1012, 780, 919, 1035, 150, 851, 126, 894, 499, 848, 103, 326, 368, 867, 1089, 93, 428, 506, 25, 560, 968, 970, 1023, 913, 1048, 353, 605, 651, 375, 902, 221, 1094, 21, 228, 953, 223, 1029, 1094, 852, 913, 131, 515, 864, 1094, 519, 1026, 997, 202, 653, 390, 787, 800, 200, 426, 480, 89, 208, 579, 141, 497, 1011, 355, 580, 979, 319, 968, 970, 56, 106, 123, 821, 123, 561, 281, 979, 1004, 1101, 427, 435, 992, 568, 1097, 383, 489, 533, 591, 637, 1021, 429, 649, 775, 127, 894, 946, 70, 372, 686, 300, 1053, 474, 815, 1052, 906, 1013, 798, 548, 1066, 211, 458, 508, 819, 395, 615, 668, 1059, 19, 477, 521, 663, 701, 475, 588, 422, 933, 866, 1056, 1072, 19, 240, 714, 267, 1080, 389, 468, 492, 493, 635, 541, 768, 802, 1066, 1073, 443, 712, 1072, 176, 479, 329, 67, 532, 505, 1081, 676, 165, 805, 805, 1077, 1068, 1080, 1082, 201, 213, 507, 460, 712, 1072, 169, 908, 202, 203, 279, 134, 774, 61, 229, 490, 170, 264, 277, 1016, 714, 557, 558, 576, 595, 880, 1069, 1024, 1026, 1028, 137, 148, 16, 442, 554, 1046, 172, 261, 868, 535, 75, 7, 1043, 1104, 600, 857, 858, 887, 32, 370, 1115, 1104, 1101, 74, 234, 886, 851, 886, 77, 1100, 382, 389, 468, 743, 965, 1113, 80, 1107, 359, 1065, 16, 420, 1110, 268, 529, 650, 1103];
weights = [1, 1, 1, 1, 1, 1, 1, 1, 1, 1, 1, 1, 1, 1, 1, 1, 1, 1, 1, 1, 1, 1, 1, 1, 1, 1, 1, 1, 1, 1, 1, 1, 1, 1, 1, 1, 1, 1, 1, 1, 1, 1, 1, 1, 1, 1, 1, 1, 1, 1, 1, 1, 1, 1, 1, 1, 1, 1, 1, 1, 1, 1, 1, 1, 1, 1, 1, 1, 1, 1, 1, 1, 1, 1, 1, 1, 1, 1, 1, 1, 1, 1, 1, 1, 1, 1, 1, 1, 1, 1, 1, 1, 1, 1, 1, 1, 1, 1, 1, 1, 1, 1, 1, 1, 1, 1, 1, 1, 1, 1, 1, 1, 1, 1, 1, 1, 1, 1, 1, 1, 1, 1, 1, 1, 1, 1, 1, 1, 1, 1, 1, 1, 1, 1, 1, 1, 1, 1, 1, 1, 1, 1, 1, 1, 1, 1, 1, 1, 1, 1, 1, 1, 1, 1, 1, 1, 1, 1, 1, 1, 1, 1, 1, 1, 1, 1, 1, 1, 1, 1, 1, 1, 1, 1, 1, 1, 1, 1, 1, 1, 1, 1, 1, 1, 1, 1, 1, 1, 1, 1, 1, 1, 1, 1, 1, 1, 1, 1, 1, 1, 1, 1, 1, 1, 1, 1, 1, 1, 1, 1, 1, 1, 1, 1, 1, 1, 1, 1, 1, 1, 1, 1, 1, 1, 1, 1, 1, 1, 1, 1, 1, 1, 1, 1, 1, 1, 1, 1, 1, 1, 1, 1, 1, 1, 1, 1, 1, 1, 1, 1, 1, 1, 1, 1, 1, 1, 1, 1, 1, 1, 1, 1, 1, 1, 1, 1, 1, 1, 1, 1, 1, 1, 1, 1, 1, 1, 1, 1, 1, 1, 1, 1, 1, 1, 1, 1, 1, 1, 1, 1, 1, 1, 1, 1, 1, 1, 1, 1, 1, 1, 1, 1, 1, 1, 1, 1, 1, 1, 1, 1, 1, 1, 1, 1, 1, 1, 1, 1, 1, 1, 1, 1, 1, 1, 1, 1, 1, 1, 1, 1, 1, 1, 1, 1, 1, 1, 1, 1, 1, 1, 1, 1, 1, 1, 1, 1, 1, 1, 1, 1, 1, 1, 1, 1, 1, 1, 1, 1, 1, 1, 1, 1, 1, 1, 1, 1, 1, 1, 1, 1, 1, 1, 1, 1, 1, 1, 1, 1, 1, 1, 1, 1, 1, 1, 1, 1, 1, 1, 1, 1, 1, 1, 1, 1, 1, 1, 1, 1, 1, 1, 1, 1, 1, 1, 1, 1, 1, 1, 1, 1, 1, 1, 1, 1, 1, 1, 1, 1, 1, 1, 1, 1, 1, 1, 1, 1, 1, 1, 1, 1, 1, 1, 1, 1, 1, 1, 1, 1, 1, 1, 1, 1, 1, 1, 1, 1, 1, 1, 1, 1, 1, 1, 1, 1, 1, 1, 1, 1, 1, 1, 1, 1, 1, 1, 1, 1, 1, 1, 1, 1, 1, 1, 1, 1, 1, 1, 1, 1, 1, 1, 1, 1, 1, 1, 1, 1, 1, 1, 1, 1, 1, 1, 1, 1, 1, 1, 1, 1, 1, 1, 1, 1, 1, 1, 1, 1, 1, 1, 1, 1, 1, 1, 1, 1, 1, 1, 1, 1, 1, 1, 1, 1, 1, 1, 1, 1, 1, 1, 1, 1, 1, 1, 1, 1, 1, 1, 1, 1, 1, 1, 1, 1, 1, 1, 1, 1, 1, 1, 1, 1, 1, 1, 1, 1, 1, 1, 1, 1, 1, 1, 1, 1, 1, 1, 1, 1, 1, 1, 1, 1, 1, 1, 1, 1, 1, 1, 1, 1, 1, 1, 1, 1, 1, 1, 1, 1, 1, 1, 1, 1, 1, 1, 1, 1, 1, 1, 1, 1, 1, 1, 1, 1, 1, 1, 1, 1, 1, 1, 1, 1, 1, 1, 1, 1, 1, 1, 1, 1, 1, 1, 1, 1, 1, 1, 1, 1, 1, 1, 1, 1, 1, 1, 1, 1, 1, 1, 1, 1, 1, 1, 1, 1, 1, 1, 1, 1, 1, 1, 1, 1, 1, 1, 1, 1, 1, 1, 1, 1, 1, 1, 1, 1, 1, 1, 1, 1, 1, 1, 1, 1, 1, 1, 1, 1, 1, 1, 1, 1, 1, 1, 1, 1, 1, 1, 1, 1, 1, 1, 1, 1, 1, 1, 1, 1, 1, 1, 1, 1, 1, 1, 1, 1, 1, 1, 1, 1, 1, 1, 1, 1, 1, 1, 1, 1, 1, 1, 1, 1, 1, 1, 1, 1, 1, 1, 1, 1, 1, 1, 1, 1, 1, 1, 1, 1, 1, 1, 1, 1, 1, 1, 1, 1, 1, 1, 1, 1, 1, 1, 1, 1, 1, 1, 1, 1, 1, 1, 1, 1, 1, 1, 1, 1, 1, 1, 1, 1, 1, 1, 1, 1, 1, 1, 1, 1, 1, 1, 1, 1, 1, 1, 1, 1, 1, 1, 1, 1, 1, 1, 1, 1, 1, 1, 1, 1, 1, 1, 1, 1, 1, 1, 1, 1, 1, 1, 1, 1, 1, 1, 1, 1, 1, 1, 1, 1, 1, 1, 1, 1, 1, 1, 1, 1, 1, 1, 1, 1, 1, 1, 1, 1, 1, 1, 1, 1, 1, 1, 1, 1, 1, 1, 1, 1, 1, 1, 1, 1, 1, 1, 1, 1, 1, 1, 1, 1, 1, 1, 1, 1, 1, 1, 1, 1, 1, 1, 1, 1, 1, 1, 1, 1, 1, 1, 1, 1, 1, 1, 1, 1, 1, 1, 1, 1, 1, 1, 1, 1, 1, 1, 1, 1, 1, 1, 1, 1, 1, 1, 1, 1, 1, 1, 1, 1, 1, 1, 1, 1, 1, 1, 1, 1, 1, 1, 1, 1, 1, 1, 1, 1, 1, 1, 1, 1, 1, 1, 1, 1, 1, 1, 1, 1, 1, 1, 1, 1, 1, 1, 1, 1, 1, 1, 1, 1, 1, 1, 1, 1, 1, 1, 1, 1, 1, 1, 1, 1, 1, 1, 1, 1, 1, 1, 1, 1, 1, 1, 1, 1, 1, 1, 1, 1, 1, 1, 1, 1, 1, 1, 1, 1, 1, 1, 1, 1, 1, 1, 1, 1, 1, 1, 1, 1, 1, 1, 1, 1, 1, 1, 1, 1, 1, 1, 1, 1, 1, 1, 1, 1, 1, 1, 1, 1, 1, 1, 1, 1, 1, 1, 1, 1, 1, 1, 1, 1, 1, 1, 1, 1, 1, 1, 1, 1, 1, 1, 1, 1, 1, 1, 1, 1, 1, 1, 1, 1, 1, 1, 1, 1, 1, 1, 1, 1, 1, 1, 1, 1, 1, 1, 1, 1, 1, 1, 1, 1, 1, 1, 1, 1, 1, 1, 1, 1, 1, 1, 1, 1, 1, 1, 1, 1, 1, 1, 1, 1, 1, 1, 1, 1, 1, 1, 1, 1, 1, 1, 1, 1, 1, 1, 1, 1, 1, 1, 1, 1, 1, 1, 1, 1, 1, 1, 1, 1, 1, 1, 1, 1, 1, 1, 1, 1, 1, 1, 1, 1, 1, 1, 1, 1, 1, 1, 1, 1, 1, 1, 1, 1, 1, 1, 1, 1, 1, 1, 1, 1, 1, 1, 1, 1, 1, 1, 1, 1, 1, 1, 1, 1, 1, 1, 1, 1, 1, 1, 1, 1, 1, 1, 1, 1, 1, 1, 1, 1, 1, 1, 1, 1, 1, 1, 1, 1, 1, 1, 1, 1, 1, 1, 1, 1, 1, 1, 1, 1, 1, 1, 1, 1, 1, 1, 1, 1, 1, 1, 1, 1, 1, 1, 1, 1, 1, 1, 1, 1, 1, 1, 1, 1, 1, 1, 1, 1, 1, 1, 1, 1, 1, 1, 1, 1, 1, 1, 1, 1, 1, 1, 1, 1, 1, 1, 1, 1, 1, 1, 1, 1, 1, 1, 1, 1, 1, 1, 1, 1, 1, 1, 1, 1, 1, 1, 1, 1, 1, 1, 1, 1, 1, 1, 1, 1, 1, 1, 1, 1, 1, 1, 1, 1, 1, 1, 1, 1, 1, 1, 1, 1, 1, 1, 1, 1, 1, 1, 1, 1, 1, 1, 1, 1, 1, 1, 1, 1, 1, 1, 1, 1, 1, 1, 1, 1, 1, 1, 1, 1, 1, 1, 1, 1, 1, 1, 1, 1, 1, 1, 1, 1, 1, 1, 1, 1, 1, 1, 1, 1, 1, 1, 1, 1, 1, 1, 1, 1, 1, 1, 1, 1, 1, 1, 1, 1, 1, 1, 1, 1, 1, 1, 1, 1, 1, 1, 1, 1, 1, 1, 1, 1, 1, 1, 1, 1, 1, 1, 1, 1, 1, 1, 1, 1, 1, 1, 1, 1, 1, 1, 1, 1, 1, 1, 1, 1, 1, 1, 1, 1, 1, 1, 1, 1, 1, 1, 1, 1, 1, 1, 1, 1, 1, 1, 1, 1, 1, 1, 1, 1, 1, 1, 1, 1, 1, 1, 1, 1, 1, 1, 1, 1, 1, 1, 1, 1, 1, 1, 1, 1, 1, 1, 1, 1, 1, 1, 1, 1, 1, 1, 1, 1, 1, 1, 1, 1, 1, 1, 1, 1, 1, 1, 1, 1, 1, 1, 1, 1, 1, 1, 1, 1, 1, 1, 1, 1, 1, 1, 1, 1, 1, 1, 1, 1, 1, 1, 1, 1, 1, 1, 1, 1, 1, 1, 1, 1, 1, 1, 1, 1, 1, 1, 1, 1, 1, 1, 1, 1, 1, 1, 1, 1, 1, 1, 1, 1, 1, 1, 1, 1, 1, 1, 1, 1, 1, 1, 1, 1, 1, 1, 1, 1, 1, 1, 1, 1, 1, 1, 1, 1, 1, 1, 1, 1, 1, 1, 1, 1, 1, 1, 1, 1, 1, 1, 1, 1, 1, 1, 1, 1, 1, 1, 1, 1, 1, 1, 1, 1, 1, 1, 1, 1, 1, 1, 1, 1, 1, 1, 1, 1, 1, 1, 1, 1, 1, 1, 1, 1, 1, 1, 1, 1, 1, 1, 1, 1, 1, 1, 1, 1, 1, 1, 1, 1, 1, 1, 1, 1, 1, 1, 1, 1, 1, 1, 1, 1, 1, 1, 1, 1, 1, 1, 1, 1, 1, 1, 1, 1, 1, 1, 1, 1, 1, 1, 1, 1, 1, 1, 1, 1, 1, 1, 1, 1, 1, 1, 1, 1, 1, 1, 1, 1, 1, 1, 1, 1, 1, 1, 1, 1, 1, 1, 1, 1, 1, 1, 1, 1, 1, 1, 1, 1, 1, 1, 1, 1, 1, 1, 1, 1, 1, 1, 1, 1, 1, 1, 1, 1, 1, 1, 1, 1, 1, 1, 1, 1, 1, 1, 1, 1, 1, 1, 1, 1, 1, 1, 1, 1, 1, 1, 1, 1, 1, 1, 1, 1, 1, 1, 1, 1, 1, 1, 1, 1, 1, 1, 1, 1, 1, 1, 1, 1, 1, 1, 1, 1, 1, 1, 1, 1, 1, 1, 1, 1, 1, 1, 1, 1, 1, 1, 1, 1, 1, 1, 1, 1, 1, 1, 1, 1, 1, 1, 1, 1, 1, 1, 1, 1, 1, 1, 1, 1, 1, 1, 1, 1, 1, 1, 1, 1, 1, 1, 1, 1, 1, 1, 1, 1, 1, 1, 1, 1, 1, 1, 1, 1, 1, 1, 1, 1, 1, 1, 1, 1, 1, 1, 1, 1, 1, 1, 1, 1, 1, 1, 1, 1, 1, 1, 1, 1, 1, 1, 1, 1, 1, 1, 1, 1, 1, 1, 1, 1, 1, 1, 1, 1, 1, 1, 1, 1, 1, 1, 1, 1, 1, 1, 1, 1, 1, 1, 1, 1, 1, 1, 1, 1, 1, 1, 1, 1, 1, 1, 1, 1, 1, 1, 1, 1, 1, 1, 1, 1, 1, 1, 1, 1, 1, 1, 1, 1, 1, 1, 1, 1, 1, 1, 1, 1, 1, 1, 1, 1, 1, 1, 1, 1, 1, 1, 1, 1, 1, 1, 1, 1, 1, 1, 1, 1, 1, 1, 1, 1, 1, 1, 1, 1, 1, 1, 1, 1, 1, 1, 1, 1, 1, 1, 1, 1, 1, 1, 1, 1, 1, 1, 1, 1, 1, 1, 1, 1, 1, 1, 1, 1, 1, 1, 1, 1, 1, 1, 1, 1, 1, 1, 1, 1, 1, 1, 1, 1, 1, 1, 1, 1, 1, 1, 1, 1, 1, 1, 1, 1, 1, 1, 1, 1, 1, 1, 1, 1, 1, 1, 1, 1, 1, 1, 1, 1, 1, 1, 1, 1, 1, 1, 1, 1, 1, 1, 1, 1, 1, 1, 1, 1, 1, 1, 1, 1, 1, 1, 1, 1, 1, 1, 1, 1, 1, 1, 1, 1, 1, 1, 1, 1, 1, 1, 1, 1, 1, 1, 1, 1, 1, 1, 1, 1, 1, 1, 1, 1, 1, 1, 1, 1, 1, 1, 1, 1, 1, 1, 1, 1, 1, 1, 1, 1, 1, 1, 1, 1, 1, 1, 1, 1, 1, 1, 1, 1, 1, 1, 1, 1, 1, 1, 1, 1, 1, 1, 1, 1, 1, 1, 1, 1, 1, 1, 1, 1, 1, 1, 1, 1, 1, 1, 1, 1, 1, 1, 1, 1, 1, 1, 1, 1, 1, 1, 1, 1, 1, 1, 1, 1, 1, 1, 1, 1, 1, 1, 1, 1, 1, 1, 1, 1, 1, 1, 1, 1, 1, 1, 1, 1, 1, 1, 1, 1, 1, 1, 1, 1, 1, 1, 1, 1, 1, 1, 1, 1, 1, 1, 1, 1, 1, 1, 1, 1, 1, 1, 1, 1, 1, 1, 1, 1, 1, 1, 1, 1, 1, 1, 1, 1, 1, 1, 1, 1, 1, 1, 1, 1, 1, 1, 1, 1, 1, 1, 1, 1, 1, 1, 1, 1, 1, 1, 1, 1, 1, 1, 1, 1, 1, 1, 1, 1, 1, 1, 1, 1, 1, 1, 1, 1, 1, 1, 1, 1, 1, 1, 1, 1, 1, 1, 1, 1, 1, 1, 1, 1, 1, 1, 1, 1, 1, 1, 1, 1, 1, 1, 1, 1, 1, 1, 1, 1, 1, 1, 1, 1, 1, 1, 1, 1, 1, 1, 1, 1, 1, 1, 1, 1, 1, 1, 1, 1, 1, 1, 1, 1, 1, 1, 1, 1, 1, 1, 1, 1, 1, 1, 1, 1, 1, 1, 1, 1, 1, 1, 1, 1, 1, 1, 1, 1, 1, 1, 1, 1, 1, 1, 1, 1, 1, 1, 1, 1, 1, 1, 1, 1, 1, 1, 1, 1, 1, 1, 1, 1, 1, 1, 1, 1, 1, 1, 1, 1, 1, 1, 1, 1, 1, 1, 1, 1, 1, 1, 1, 1, 1, 1, 1, 1, 1, 1, 1, 1, 1, 1, 1, 1, 1, 1, 1, 1, 1, 1, 1, 1, 1, 1, 1, 1, 1, 1, 1, 1, 1, 1, 1, 1, 1, 1, 1, 1, 1, 1, 1, 1, 1, 1, 1, 1, 1, 1, 1, 1, 1, 1, 1, 1, 1, 1, 1, 1, 1, 1, 1, 1, 1, 1, 1, 1, 1, 1, 1, 1, 1, 1, 1, 1, 1, 1, 1, 1, 1, 1, 1, 1, 1, 1, 1, 1, 1, 1, 1, 1, 1, 1, 1, 1, 1, 1, 1, 1, 1, 1, 1, 1, 1, 1, 1, 1, 1, 1, 1, 1, 1, 1, 1, 1, 1, 1, 1, 1, 1, 1, 1, 1, 1, 1, 1, 1, 1, 1, 1, 1, 1, 1, 1, 1, 1, 1, 1, 1, 1, 1, 1, 1, 1, 1, 1, 1, 1, 1, 1, 1, 1, 1, 1, 1, 1, 1, 1, 1, 1, 1, 1, 1, 1, 1, 1, 1, 1, 1, 1, 1, 1, 1, 1, 1, 1, 1, 1, 1, 1, 1, 1, 1, 1, 1, 1, 1, 1, 1, 1, 1, 1, 1, 1, 1, 1, 1, 1, 1, 1, 1, 1, 1, 1, 1, 1, 1, 1, 1, 1, 1, 1, 1, 1, 1, 1, 1, 1, 1, 1, 1, 1, 1, 1, 1, 1, 1, 1, 1, 1, 1, 1, 1, 1, 1, 1, 1, 1, 1, 1, 1, 1, 1, 1, 1, 1, 1, 1, 1, 1, 1];
start = 978;
end= 440;
p = [0, 0, 0, 0, 0, 0, 1, 0, 0, 0, 0, 0, 0, 0, 0, 0, 0, 0, 0, 0, 0, 0, 0, 0, 0, 0, 0, 0, 0, 0, 0, 0, 0, 0, 0, 0, 0, 0, 0, 0, 0, 0, 0, 0, 0, 0, 0, 0, 0, 0, 0, 1, 0, 0, 0, 0, 0, 0, 0, 0, 0, 0, 0, 0, 0, 0, 0, 0, 0, 0, 0, 0, 0, 0, 0, 0, 0, 0, 0, 0, 1, 0, 0, 0, 0, 0, 0, 0, 0, 0, 0, 0, 0, 0, 0, 0, 0, 0, 0, 0, 0, 0, 0, 0, 0, 0, 0, 0, 0, 0, 0, 0, 0, 0, 0, 0, 0, 0, 0, 0, 0, 0, 0, 0, 0, 0, 0, 0, 1, 0, 0, 0, 0, 0, 0, 0, 0, 0, 0, 0, 0, 0, 0, 0, 0, 0, 0, 0, 0, 0, 0, 0, 1, 0, 0, 0, 0, 0, 0, 0, 0, 0, 0, 0, 0, 0, 0, 0, 0, 0, 0, 0, 0, 0, 0, 0, 0, 0, 0, 0, 0, 0, 0, 0, 0, 0, 0, 0, 0, 0, 0, 0, 0, 0, 0, 0, 0, 0, 0, 0, 0, 0, 0, 0, 0, 0, 0, 1, 0, 0, 0, 0, 0, 0, 0, 0, 0, 0, 1, 0, 0, 0, 0, 0, 0, 0, 0, 0, 0, 0, 0, 0, 0, 0, 0, 0, 0, 0, 0, 0, 0, 0, 0, 0, 0, 0, 0, 0, 0, 0, 0, 0, 0, 0, 0, 0, 0, 0, 0, 0, 0, 0, 0, 0, 0, 0, 1, 0, 0, 0, 0, 0, 0, 0, 1, 0, 0, 0, 0, 0, 0, 0, 0, 0, 0, 0, 0, 0, 0, 0, 0, 0, 0, 0, 0, 0, 0, 0, 0, 0, 0, 0, 0, 0, 0, 0, 0, 0, 0, 0, 0, 0, 0, 0, 0, 0, 0, 0, 0, 0, 0, 0, 0, 0, 0, 0, 0, 0, 0, 0, 0, 0, 0, 0, 0, 0, 0, 0, 0, 0, 0, 0, 0, 0, 0, 0, 0, 0, 0, 0, 0, 0, 0, 0, 0, 0, 0, 0, 0, 0, 0, 0, 0, 0, 0, 0, 0, 0, 0, 0, 0, 0, 0, 0, 0, 0, 0, 0, 0, 0, 0, 0, 0, 0, 0, 0, 0, 0, 0, 0, 0, 0, 0, 0, 0, 0, 0, 0, 0, 0, 0, 0, 0, 0, 0, 0, 0, 0, 0, 0, 0, 0, 0, 0, 0, 0, 0, 0, 0, 0, 0, 0, 0, 0, 0, 0, 0, 0, 0, 0, 0, 0, 0, 0, 0, 0, 0, 0, 0, 0, 0, 0, 0, 1, 0, 0, 0, 0, 0, 0, 0, 0, 0, 1, 0, 0, 0, 0, 0, 0, 0, 0, 0, 0, 0, 0, 0, 0, 0, 0, 0, 0, 0, 0, 0, 0, 0, 0, 0, 0, 0, 0, 0, 0, 0, 0, 0, 1, 0, 0, 0, 0, 0, 0, 0, 0, 0, 0, 0, 0, 0, 0, 0, 0, 0, 0, 1, 0, 0, 0, 0, 0, 0, 0, 0, 1, 0, 0, 0, 0, 0, 0, 0, 0, 1, 0, 0, 0, 0, 0, 0, 0, 0, 0, 0, 0, 0, 0, 0, 0, 0, 0, 0, 0, 0, 0, 0, 0, 0, 0, 0, 0, 0, 0, 0, 0, 0, 0, 0, 0, 0, 0, 0, 0, 0, 0, 0, 0, 0, 0, 0, 0, 0, 0, 0, 1, 0, 0, 0, 0, 0, 0, 0, 0, 0, 0, 0, 0, 0, 0, 0, 0, 0, 0, 0, 0, 0, 0, 0, 0, 0, 0, 0, 0, 0, 0, 0, 0, 0, 0, 0, 0, 0, 0, 0, 0, 0, 0, 0, 0, 0, 0, 0, 0, 0, 0, 0, 0, 0, 0, 0, 0, 0, 0, 0, 0, 0, 0, 0, 0, 0, 0, 0, 0, 0, 0, 0, 0, 0, 0, 0, 0, 0, 0, 0, 0, 0, 0, 0, 0, 0, 0, 0, 0, 0, 0, 0, 0, 0, 0, 0, 0, 0, 0, 0, 0, 0, 0, 0, 0, 0, 0, 0, 0, 0, 0, 0, 0, 0, 0, 0, 0, 0, 0, 0, 0, 0, 0, 0, 0, 0, 0, 0, 0, 0, 0, 0, 0, 0, 0, 0, 0, 0, 0, 0, 0, 0, 0, 0, 0, 0, 0, 0, 0, 0, 0, 0, 0, 0, 0, 0, 0, 0, 0, 0, 0, 0, 0, 0, 0, 0, 0, 0, 0, 0, 0, 0, 0, 0, 0, 0, 0, 0, 0, 0, 0, 1, 0, 0, 0, 0, 0, 0, 0, 0, 0, 0, 0, 0, 0, 0, 0, 0, 0, 0, 0, 0, 0, 0, 0, 0, 0, 0, 0, 0, 0, 0, 0, 0, 0, 0, 0, 0, 0, 0, 0, 0, 0, 0, 0, 0, 0, 1, 0, 0, 0, 0, 0, 0, 0, 0, 0, 0, 0, 0, 0, 0, 0, 0, 0, 0, 0, 0, 0, 0, 0, 0, 0, 0, 0, 0, 0, 0, 0, 0, 0, 0, 0, 0, 0, 0, 0, 0, 0, 0, 0, 0, 0, 0, 0, 0, 0, 0, 0, 0, 0, 0, 0, 0, 0, 0, 0, 0, 0, 0, 0, 0, 0, 0, 0, 0, 0, 0, 0, 0, 0, 0, 0, 0, 0, 0, 0, 0, 0, 0, 0, 0, 1, 0, 0, 0, 0, 0, 0, 0, 0, 0, 0, 0, 0, 0, 0, 0, 0, 1, 0, 0, 0, 1, 0, 0, 0, 0, 0, 0, 0, 0, 0, 0, 0, 1, 0, 0, 0, 0, 0, 0, 0, 0, 0, 0, 0, 0, 0, 0, 0, 0, 0, 0, 0, 0, 0, 0, 0, 0, 0, 0, 0, 0, 0, 0, 0, 0, 0, 0, 0, 0, 0, 0, 0, 0, 0, 0, 0, 0, 0, 0, 0, 0, 0, 0, 0, 0, 0, 0, 0, 0, 0, 0, 0, 0, 0, 0, 0, 0, 0, 0, 0, 0, 0, 0, 0, 0, 0, 0, 0, 0, 0, 0, 0, 0, 0, 0, 0, 0, 0, 0, 0, 0, 0, 0, 0, 0, 0, 0, 0, 0, 1, 0, 0, 0, 0, 0, 0, 0, 0, 0, 0, 0, 0, 0, 0, 1, 0, 0, 0, 0, 0, 0, 0, 0, 0, 0, 0, 0, 0, 0, 0, 0, 0, 0, 0, 0, 0, 0, 0, 0, 0, 0, 0, 0, 0, 0, 0, 0, 0, 0, 0, 0, 0, 0, 0, 0, 0, 0, 0, 0, 0, 0, 0, 0, 0, 0, 0, 0, 0, 0, 0, 0, 0, 0, 0, 0, 0, 0, 0, 0, 0, 0, 0, 0, 0, 0, 0, 0, 0, 0, 0, 0, 0, 0, 1, 0, 0, 0];
